(set-info :smt-lib-version 2.6)
(set-logic UFNIRA)
(set-info :source |
Generated by: Mirek Olšák, Mikoláš Janota, Chad E. Brown
Generated on: 2024-04-14
Application: Mathematics challenges involving function synthesis
Publications: https://arxiv.org/abs/2404.12048
From a collection by: Vít Musil
Source url: https://prase.cz/library/FunkcionalniRovniceVM/FunkcionalniRovniceVM.pdf
Problem number: Cvičení 10
|)
(set-info :license "https://creativecommons.org/licenses/by-nc/4.0/")
(set-info :category "crafted")
(set-info :status unsat)

; Header
(declare-fun f (Real) Real)
(assert (forall ((x Real) (y Real)) (=> (< x y) (<= (f x) (f y))))) ; nondecreasing

; Equations
(assert (forall ((x Real)) (= (f (f x)) x)))

; Find all possible f

; Solutions

(assert (not (forall ((x Real)) (= (f x) x))))

(check-sat)
(exit)
